Normalized Data/p04_12_normalized_split0.vrp
NAME:p04_12_NORMALIZED_split
BEST_KNOWN: 0
COMMENT: 0
DIMENSION: 630
CAPACITY: 100
EDGE_WEIGHT_FORMAT: FUNCTION
EDGE_WEIGHT_TYPE: EXACT_2D
NODE_COORD_SECTION
1 0.00000 0.00000
2 40 13
3 40 13
4 40 13
5 40 13
6 40 13
7 22 42
8 22 42
9 22 42
10 22 42
11 31 -30
12 31 -30
13 31 -30
14 31 -30
15 31 -30
16 -26 -13
17 -26 -13
18 -26 -13
19 -26 -13
20 -26 -13
21 28 30
22 28 30
23 28 30
24 -6 24
25 -6 24
26 -6 24
27 -6 24
28 -45 15
29 -45 15
30 -45 15
31 -45 15
32 -45 15
33 2 37
34 2 37
35 -41 19
36 -41 19
37 -41 19
38 -41 19
39 24 -2
40 24 -2
41 24 -2
42 2 -17
43 2 -17
44 2 -17
45 2 -17
46 2 -17
47 2 -17
48 -21 3
49 -21 3
50 -21 3
51 -21 3
52 -21 3
53 -21 3
54 -21 3
55 17 -30
56 17 -30
57 17 -30
58 17 -30
59 17 -30
60 17 -30
61 -47 -30
62 -47 -30
63 -47 -30
64 -47 -30
65 -47 -30
66 -31 -21
67 -31 -21
68 -31 -21
69 -31 -21
70 -31 -21
71 -31 -21
72 12 43
73 12 43
74 12 43
75 12 43
76 12 43
77 12 43
78 -14 38
79 -14 38
80 -14 38
81 -14 38
82 -14 38
83 -43 -24
84 -43 -24
85 -43 -24
86 -35 -24
87 -35 -24
88 5 -8
89 5 -8
90 5 -8
91 5 -8
92 3 -15
93 3 -15
94 3 -15
95 3 -15
96 7 -16
97 7 -16
98 7 -16
99 10 -15
100 10 -15
101 10 -15
102 10 -15
103 10 -15
104 10 -15
105 -23 12
106 -23 12
107 -23 12
108 -23 12
109 -9 -5
110 -9 -5
111 -9 -5
112 -5 -4
113 -5 -4
114 -5 -4
115 -5 -4
116 26 41
117 26 41
118 26 41
119 26 41
120 -21 4
121 -21 4
122 -21 4
123 -21 4
124 -21 4
125 -17 31
126 -17 31
127 -17 31
128 33 -23
129 33 -23
130 33 -23
131 48 -23
132 48 -23
133 48 -23
134 -22 -11
135 -22 -11
136 -22 -11
137 -22 -11
138 -22 -11
139 -18 18
140 -18 18
141 -18 18
142 -18 18
143 -13 5
144 -13 5
145 -13 5
146 -13 5
147 -13 5
148 -2 -12
149 -2 -12
150 -2 -12
151 -2 -12
152 -2 -12
153 -2 -12
154 -2 -12
155 13 26
156 13 26
157 13 26
158 13 26
159 13 26
160 13 26
161 24 39
162 24 39
163 -46 26
164 -46 26
165 -46 26
166 -47 49
167 -47 49
168 -47 49
169 -47 49
170 25 8
171 25 8
172 25 8
173 14 -28
174 14 -28
175 14 -28
176 20 24
177 20 24
178 20 24
179 20 24
180 20 24
181 20 24
182 -47 34
183 -47 34
184 -47 34
185 -47 34
186 -47 34
187 -47 34
188 -22 13
189 -22 13
190 -22 13
191 -22 13
192 10 -4
193 10 -4
194 10 -4
195 10 -4
196 10 -4
197 49 -16
198 49 -16
199 49 -16
200 49 -16
201 49 -16
202 49 -16
203 12 -8
204 12 -8
205 12 -8
206 12 -8
207 12 -8
208 -17 -34
209 30 -35
210 30 -35
211 30 -35
212 -7 -34
213 -7 -34
214 -7 -34
215 -7 -34
216 -7 -34
217 -7 -34
218 12 40
219 12 40
220 12 40
221 12 40
222 12 40
223 -36 -28
224 -36 -28
225 -36 -28
226 -36 -28
227 -46 50
228 -46 50
229 -1 12
230 -1 12
231 -1 12
232 3 49
233 3 49
234 -31 -10
235 -31 -10
236 -31 -10
237 -31 -10
238 31 -44
239 31 -44
240 31 -44
241 31 -44
242 -21 42
243 -21 42
244 -21 42
245 -21 42
246 -21 42
247 28 9
248 28 9
249 28 9
250 28 9
251 33 3
252 33 3
253 -48 -14
254 -48 -14
255 -48 -14
256 -48 -14
257 -48 -5
258 -48 -5
259 -48 -5
260 -48 -5
261 17 28
262 17 28
263 17 28
264 17 28
265 -42 -20
266 -42 -20
267 3 -36
268 3 -36
269 3 -36
270 3 -36
271 7 -38
272 7 -38
273 7 -38
274 7 -38
275 7 -38
276 -25 -1
277 -25 -1
278 -25 -1
279 -25 -1
280 -25 -1
281 -35 9
282 -35 9
283 -35 9
284 -35 9
285 -35 9
286 -35 9
287 -35 9
288 43 2
289 43 2
290 36 38
291 36 38
292 36 38
293 48 -39
294 48 -39
295 48 -39
296 48 -39
297 48 -39
298 48 -39
299 -17 -9
300 -17 -9
301 -17 -9
302 0 29
303 0 29
304 0 29
305 4 -7
306 4 -7
307 4 -7
308 4 -7
309 46 1
310 46 1
311 46 1
312 46 1
313 46 1
314 49 -31
315 49 -31
316 27 22
317 27 22
318 27 22
319 22 27
320 22 27
321 22 27
322 22 27
323 22 27
324 22 27
325 -12 49
326 -12 49
327 -12 49
328 -12 49
329 -12 49
330 -12 49
331 -12 49
332 48 -14
333 48 -14
334 48 -14
335 48 -14
336 48 -14
337 48 -14
338 -21 -29
339 -21 -29
340 -21 -29
341 -21 -29
342 -21 -29
343 -21 -29
344 -21 -29
345 7 -5
346 7 -5
347 7 -5
348 7 -5
349 7 -5
350 7 -5
351 -24 -5
352 -24 -5
353 -24 -5
354 -28 37
355 -28 37
356 14 -4
357 14 -4
358 43 33
359 43 33
360 43 33
361 -19 -12
362 -19 -12
363 -19 -12
364 -19 -12
365 40 17
366 40 17
367 40 17
368 40 17
369 50 -46
370 50 -46
371 50 -46
372 50 -46
373 50 -46
374 50 -46
375 49 -31
376 49 -31
377 49 -31
378 49 -31
379 49 -31
380 -39 -31
381 -39 -31
382 -39 -31
383 28 -2
384 28 -2
385 28 -2
386 43 -36
387 43 -36
388 43 -36
389 43 -36
390 43 -36
391 43 -36
392 -16 8
393 -16 8
394 -3 42
395 -3 42
396 -3 42
397 28 13
398 28 13
399 28 13
400 -14 -11
401 -14 -11
402 -14 -11
403 20 -11
404 20 -11
405 20 -11
406 5 26
407 5 26
408 5 26
409 5 26
410 5 26
411 5 26
412 17 37
413 -10 18
414 -10 18
415 -10 18
416 -10 18
417 -10 18
418 -10 18
419 -10 18
420 40 -16
421 40 -16
422 40 -16
423 40 -16
424 40 -16
425 16 34
426 16 34
427 16 34
428 16 34
429 16 34
430 16 34
431 -31 -23
432 -31 -23
433 -31 -23
434 -31 -23
435 -31 -23
436 8 34
437 8 34
438 8 34
439 8 34
440 -31 -38
441 -31 -38
442 -31 -38
443 -31 -38
444 -31 -38
445 -31 -38
446 24 40
447 24 40
448 -46 16
449 -46 16
450 -46 16
451 -46 16
452 -46 16
453 -46 16
454 45 -10
455 45 -10
456 45 -10
457 45 -10
458 -18 4
459 -18 4
460 -18 4
461 -18 4
462 -18 4
463 -28 -13
464 -28 -13
465 -28 -13
466 -28 -13
467 46 -10
468 46 -10
469 46 -10
470 46 -10
471 46 -10
472 44 46
473 44 46
474 44 46
475 44 46
476 44 46
477 11 -9
478 11 -9
479 11 -9
480 -11 9
481 -11 9
482 -11 9
483 -11 9
484 -11 9
485 -28 47
486 -28 47
487 -9 -15
488 -9 -15
489 -9 -15
490 -33 -26
491 -33 -26
492 39 -17
493 39 -17
494 30 10
495 30 10
496 30 10
497 30 10
498 30 10
499 30 10
500 30 10
501 -38 -15
502 -38 -15
503 -38 -15
504 -38 -15
505 21 -35
506 21 -35
507 21 -35
508 21 -35
509 21 -35
510 50 -2
511 50 -2
512 50 -2
513 -39 4
514 0 14
515 0 14
516 0 14
517 0 14
518 0 14
519 -13 48
520 -13 48
521 -13 48
522 -13 48
523 -13 48
524 -13 48
525 -41 -33
526 -41 -33
527 -41 -33
528 -41 -33
529 -41 -33
530 -41 -33
531 11 3
532 11 3
533 11 3
534 11 3
535 32 -44
536 32 -44
537 32 -44
538 32 -44
539 32 -44
540 14 -41
541 14 -41
542 14 -41
543 34 38
544 34 38
545 34 38
546 34 38
547 34 38
548 34 38
549 23 13
550 23 13
551 23 13
552 4 40
553 4 40
554 4 40
555 21 -40
556 21 -40
557 21 -40
558 16 6
559 16 6
560 16 6
561 16 6
562 16 6
563 -12 -43
564 -12 -43
565 -12 -43
566 -12 -43
567 -12 -43
568 -12 -43
569 -35 24
570 -35 24
571 -35 24
572 -40 -28
573 -40 -28
574 -40 -28
575 35 -38
576 35 -38
577 35 -38
578 35 -38
579 35 -38
580 35 -38
581 -8 -29
582 -8 -29
583 -18 -43
584 -18 -43
585 -18 -43
586 -18 -43
587 -18 -43
588 46 -50
589 46 -50
590 46 -50
591 46 -50
592 46 -50
593 46 -50
594 38 33
595 38 33
596 38 33
597 38 33
598 -23 -12
599 -23 -12
600 26 6
601 26 6
602 26 6
603 26 6
604 26 6
605 -45 23
606 -45 23
607 -45 23
608 -45 23
609 -45 23
610 -45 23
611 -8 -20
612 -8 -20
613 -8 -20
614 -8 -20
615 -42 7
616 -42 7
617 -42 7
618 -42 7
619 -42 7
620 -42 7
621 21 35
622 21 35
623 21 35
624 21 35
625 21 35
626 -7 22
627 -7 22
628 -7 22
629 -7 22
630 -7 22
DEMAND_SECTION
1 0
2 10
3 5
4 1
5 1
6 1
7 10
8 1
9 1
10 1
11 20
12 10
13 1
14 1
15 1
16 10
17 5
18 1
19 1
20 1
21 20
22 1
23 1
24 20
25 5
26 1
27 1
28 20
29 20
30 5
31 1
32 1
33 20
34 1
35 20
36 1
37 1
38 1
39 10
40 5
41 1
42 10
43 5
44 1
45 1
46 1
47 1
48 20
49 20
50 5
51 1
52 1
53 1
54 1
55 20
56 10
57 1
58 1
59 1
60 1
61 20
62 20
63 5
64 1
65 1
66 20
67 10
68 5
69 1
70 1
71 1
72 20
73 20
74 5
75 1
76 1
77 1
78 10
79 5
80 1
81 1
82 1
83 20
84 10
85 1
86 20
87 10
88 20
89 10
90 1
91 1
92 10
93 5
94 1
95 1
96 20
97 10
98 1
99 20
100 20
101 5
102 1
103 1
104 1
105 20
106 1
107 1
108 1
109 10
110 1
111 1
112 20
113 1
114 1
115 1
116 10
117 1
118 1
119 1
120 20
121 20
122 5
123 1
124 1
125 10
126 5
127 1
128 20
129 20
130 5
131 20
132 5
133 1
134 20
135 5
136 1
137 1
138 1
139 10
140 1
141 1
142 1
143 20
144 5
145 1
146 1
147 1
148 20
149 20
150 5
151 1
152 1
153 1
154 1
155 10
156 5
157 1
158 1
159 1
160 1
161 20
162 1
163 20
164 1
165 1
166 20
167 10
168 1
169 1
170 20
171 10
172 1
173 10
174 5
175 1
176 20
177 20
178 1
179 1
180 1
181 1
182 20
183 20
184 5
185 1
186 1
187 1
188 20
189 5
190 1
191 1
192 20
193 10
194 5
195 1
196 1
197 20
198 20
199 5
200 1
201 1
202 1
203 10
204 5
205 1
206 1
207 1
208 20
209 20
210 20
211 1
212 20
213 20
214 5
215 1
216 1
217 1
218 20
219 20
220 5
221 1
222 1
223 20
224 20
225 1
226 1
227 20
228 20
229 10
230 5
231 1
232 20
233 1
234 10
235 1
236 1
237 1
238 20
239 10
240 1
241 1
242 20
243 10
244 1
245 1
246 1
247 20
248 10
249 1
250 1
251 10
252 5
253 10
254 5
255 1
256 1
257 20
258 10
259 5
260 1
261 20
262 10
263 1
264 1
265 20
266 20
267 20
268 1
269 1
270 1
271 20
272 1
273 1
274 1
275 1
276 10
277 5
278 1
279 1
280 1
281 20
282 20
283 5
284 1
285 1
286 1
287 1
288 20
289 1
290 20
291 10
292 5
293 20
294 20
295 5
296 1
297 1
298 1
299 20
300 5
301 1
302 10
303 5
304 1
305 10
306 5
307 1
308 1
309 20
310 1
311 1
312 1
313 1
314 20
315 20
316 20
317 10
318 5
319 20
320 20
321 1
322 1
323 1
324 1
325 20
326 10
327 5
328 1
329 1
330 1
331 1
332 20
333 20
334 1
335 1
336 1
337 1
338 20
339 10
340 5
341 1
342 1
343 1
344 1
345 10
346 5
347 1
348 1
349 1
350 1
351 20
352 10
353 1
354 20
355 5
356 20
357 20
358 20
359 10
360 5
361 20
362 1
363 1
364 1
365 10
366 1
367 1
368 1
369 20
370 5
371 1
372 1
373 1
374 1
375 20
376 20
377 1
378 1
379 1
380 20
381 1
382 1
383 20
384 10
385 1
386 20
387 20
388 1
389 1
390 1
391 1
392 20
393 5
394 20
395 20
396 5
397 20
398 10
399 5
400 20
401 20
402 5
403 20
404 5
405 1
406 10
407 5
408 1
409 1
410 1
411 1
412 20
413 20
414 10
415 5
416 1
417 1
418 1
419 1
420 10
421 1
422 1
423 1
424 1
425 20
426 5
427 1
428 1
429 1
430 1
431 20
432 10
433 5
434 1
435 1
436 20
437 5
438 1
439 1
440 20
441 20
442 1
443 1
444 1
445 1
446 10
447 5
448 20
449 20
450 5
451 1
452 1
453 1
454 20
455 10
456 5
457 1
458 20
459 20
460 5
461 1
462 1
463 20
464 5
465 1
466 1
467 20
468 10
469 1
470 1
471 1
472 20
473 5
474 1
475 1
476 1
477 20
478 1
479 1
480 20
481 1
482 1
483 1
484 1
485 10
486 5
487 20
488 10
489 1
490 20
491 5
492 20
493 10
494 20
495 10
496 5
497 1
498 1
499 1
500 1
501 10
502 1
503 1
504 1
505 20
506 20
507 5
508 1
509 1
510 20
511 20
512 5
513 20
514 20
515 20
516 1
517 1
518 1
519 20
520 10
521 5
522 1
523 1
524 1
525 20
526 10
527 5
528 1
529 1
530 1
531 20
532 10
533 5
534 1
535 20
536 1
537 1
538 1
539 1
540 20
541 5
542 1
543 10
544 5
545 1
546 1
547 1
548 1
549 10
550 5
551 1
552 20
553 20
554 5
555 10
556 1
557 1
558 20
559 20
560 1
561 1
562 1
563 10
564 5
565 1
566 1
567 1
568 1
569 20
570 1
571 1
572 20
573 10
574 1
575 20
576 5
577 1
578 1
579 1
580 1
581 20
582 10
583 20
584 10
585 5
586 1
587 1
588 20
589 5
590 1
591 1
592 1
593 1
594 10
595 5
596 1
597 1
598 20
599 5
600 20
601 10
602 1
603 1
604 1
605 20
606 20
607 5
608 1
609 1
610 1
611 10
612 1
613 1
614 1
615 10
616 5
617 1
618 1
619 1
620 1
621 20
622 10
623 1
624 1
625 1
626 20
627 20
628 1
629 1
630 1
DEPOT_SECTION
1
-1
EOF