Normalized Data/p04_12_normalized_split0.sol
629 -9 6 8 7 117 116 118 115 547 546 544 291 290 289 20 549 550 548 -28 29 30 31 27 449 451 450 452 447 448 -33 32 552 551 553 438 437 435 436 409 408 406 -39 332 331 335 334 333 336 198 197 201 196 200 199 423 421 -40 38 383 384 382 251 250 499 498 495 497 398 396 397 -51 49 47 52 48 53 50 275 276 279 278 277 350 351 352 -57 508 507 556 555 554 237 239 240 238 535 538 537 536 534 576 574 578 575 577 579 -66 572 573 571 61 62 60 63 64 526 527 432 -80 77 78 242 244 245 241 243 484 485 353 124 126 125 -81 79 519 523 520 521 522 518 330 326 324 325 329 327 328 394 -86 85 223 225 222 224 490 489 434 433 -90 87 103 100 99 102 101 98 95 97 96 -105 107 104 106 190 189 188 187 140 138 413 412 417 418 416 414 415 -109 110 108 300 298 360 362 361 401 399 400 -113 114 111 112 142 144 143 145 146 391 392 483 481 480 482 479 -119 123 121 120 122 460 461 458 459 457 -135 136 133 134 462 465 464 463 16 17 15 598 597 299 -137 19 18 82 83 84 265 264 501 500 502 503 233 234 236 235 -141 139 354 226 227 168 166 165 167 163 162 -153 151 148 150 152 149 147 46 41 45 43 42 44 93 94 92 91 306 304 307 -155 156 71 73 76 75 74 72 232 231 395 393 -158 159 157 154 262 318 319 320 321 323 322 179 175 178 176 -170 169 171 247 248 249 246 599 603 601 600 602 533 -173 174 58 56 55 54 59 506 505 504 346 345 344 -180 177 22 21 542 543 545 471 475 474 472 473 357 359 358 595 596 594 593 -185 184 186 181 183 182 164 604 609 605 608 606 607 -193 192 191 557 558 532 530 -195 194 356 355 402 203 202 205 476 477 478 -206 204 374 314 376 313 131 130 132 422 419 -210 208 209 13 12 10 11 14 128 129 349 -211 213 212 216 215 214 580 488 486 487 -221 220 217 219 218 411 427 425 429 424 426 428 -230 229 228 517 516 514 515 513 -254 255 252 253 256 257 259 258 619 614 616 617 618 615 512 -260 263 261 160 161 445 446 622 621 624 623 620 -267 266 268 269 270 272 271 273 274 539 541 540 172 89 88 305 -284 286 283 282 281 285 280 35 36 37 34 568 570 569 -315 316 317 364 366 367 365 1 5 2 3 4 494 496 493 561 560 559 -343 342 340 341 338 337 339 430 431 70 65 67 68 69 363 -347 348 390 389 296 297 293 295 292 294 378 375 377 127 404 403 -381 380 379 525 528 524 529 440 443 441 444 439 442 -386 388 387 385 368 373 372 370 369 371 588 590 587 591 589 592 -410 405 407 301 303 302 26 24 23 25 626 628 625 627 629 -454 455 456 453 466 468 469 470 467 420 492 491 -509 511 510 310 312 309 308 311 288 287 531 -581 567 566 564 565 562 563 586 583 585 582 584 207 610 613 612 611 0 





OBJ=
4058.712
BEST_KNOWN=
0.000